NAME (null)_copy
ROWS
 N  OBJ
 E  c0      
 E  c1      
 E  c2      
 E  c3      
 E  c4      
 E  c5      
 E  c6      
 E  c7      
 E  c8      
 E  c9      
 E  c10     
 E  c11     
 E  c12     
 E  c13     
 E  c14     
 E  c15     
 E  c16     
 E  c17     
 E  c18     
 E  c19     
 E  c20     
 E  c21     
 E  c22     
 E  c23     
 E  c24     
 E  c25     
 E  c26     
 E  c27     
 E  c28     
 L  c29     
 L  c30     
 L  c31     
 L  c32     
 L  c33     
 L  c34     
 L  c35     
 L  c36     
 L  c37     
 L  c38     
 L  c39     
 L  c40     
 L  c41     
 L  c42     
 L  c43     
 L  c44     
 L  c45     
 L  c46     
 L  c47     
 L  c48     
 E  c49     
 E  c50     
 E  c51     
 E  c52     
 E  c53     
 E  c54     
 E  c55     
 E  c56     
 E  c57     
 E  c58     
 E  c59     
 E  c60     
 E  c61     
 E  c62     
 E  c63     
 E  c64     
 L  c65     
 L  c66     
 L  c67     
 L  c68     
 L  c69     
 L  c70     
 L  c71     
 L  c72     
 L  c73     
 L  c74     
 L  c75     
 L  c76     
 L  c77     
 L  c78     
 L  c79     
 L  c80     
 L  c81     
 L  c82     
 L  c83     
 L  c84     
 L  c85     
 L  c86     
 L  c87     
 L  c88     
 L  c89     
 L  c90     
 L  c91     
 L  c92     
 L  c93     
 L  c94     
 L  c95     
 L  c96     
 L  c97     
 L  c98     
 L  c99     
 L  c100    
 L  c101    
 L  c102    
 L  c103    
 L  c104    
 L  c105    
 L  c106    
 L  c107    
 L  c108    
 L  c109    
 L  c110    
 L  c111    
 L  c112    
 L  c113    
 L  c114    
 L  c115    
 L  c116    
 L  c117    
 L  c118    
 L  c119    
 L  c120    
 L  c121    
 L  c122    
 L  c123    
 L  c124    
 L  c125    
 L  c126    
 L  c127    
 L  c128    
 L  c129    
 L  c130    
 L  c131    
 L  c132    
 L  c133    
 L  c134    
 L  c135    
 L  c136    
 L  c137    
 L  c138    
 L  c139    
 L  c140    
 L  c141    
 L  c142    
 L  c143    
 L  c144    
 L  c145    
 L  c146    
 L  c147    
 L  c148    
 L  c149    
 L  c150    
 L  c151    
 L  c152    
 L  c153    
 L  c154    
 L  c155    
 L  c156    
 L  c157    
 L  c158    
 L  c159    
 L  c160    
 L  c161    
 L  c162    
 L  c163    
 L  c164    
 L  c165    
 L  c166    
 L  c167    
 L  c168    
 L  c169    
 L  c170    
 L  c171    
 L  c172    
 L  c173    
 L  c174    
 L  c175    
 L  c176    
 L  c177    
 L  c178    
 L  c179    
 L  c180    
 L  c181    
 L  c182    
 L  c183    
 L  c184    
 L  c185    
 L  c186    
 L  c187    
 L  c188    
 L  c189    
 L  c190    
 L  c191    
 L  c192    
 L  c193    
 L  c194    
 L  c195    
 L  c196    
 L  c197    
 L  c198    
 L  c199    
 L  c200    
 L  c201    
 L  c202    
 L  c203    
 L  c204    
 L  c205    
 L  c206    
 L  c207    
 L  c208    
 L  c209    
 L  c210    
 L  c211    
 L  c212    
 L  c213    
 L  c214    
 L  c215    
 L  c216    
 L  c217    
 L  c218    
 L  c219    
 L  c220    
 L  c221    
 L  c222    
 L  c223    
 L  c224    
 L  c225    
 L  c226    
 L  c227    
 L  c228    
 L  c229    
 L  c230    
 L  c231    
 L  c232    
 L  c233    
 L  c234    
 L  c235    
 L  c236    
 L  c237    
 L  c238    
 L  c239    
 L  c240    
 L  c241    
 L  c242    
 L  c243    
 L  c244    
 L  c245    
 L  c246    
 L  c247    
 L  c248    
 L  c249    
 L  c250    
 L  c251    
 L  c252    
 L  c253    
 L  c254    
 L  c255    
 L  c256    
 L  c257    
 L  c258    
 L  c259    
 L  c260    
 L  c261    
 L  c262    
 L  c263    
 L  c264    
 L  c265    
 L  c266    
 L  c267    
 L  c268    
 L  c269    
 L  c270    
 L  c271    
 L  c272    
 L  c273    
 L  c274    
 L  c275    
 L  c276    
COLUMNS
    MARKER    'MARKER'                 'INTORG'
    x[0,0,0]  c0        1
    x[0,0,0]  c4        -1
    x[0,0,0]  c29       1
    x[0,0,0]  c65       4
    x[0,0,0]  c85       4
    x[0,0,0]  c97       4
    x[0,0,0]  c117      4
    x[0,0,0]  c194      -1
    x[0,0,0]  c197      -1
    x[0,0,0]  c213      1
    x[0,0,0]  c237      1
    x[0,0,0]  c261      -1
    x[0,0,0]  c266      -1
    x[0,0,0]  c271      -1
    x[0,0,0]  c276      -1
    x[0,0,1]  c0        1
    x[0,0,1]  c5        -1
    x[0,0,1]  c30       1
    x[0,0,1]  c66       4
    x[0,0,1]  c88       4
    x[0,0,1]  c102      4
    x[0,0,1]  c121      4
    x[0,0,1]  c199      -1
    x[0,0,1]  c202      -1
    x[0,0,1]  c218      1
    x[0,0,1]  c242      1
    x[0,0,1]  c266      -1
    x[0,0,1]  c271      -1
    x[0,0,1]  c276      -1
    x[0,0,2]  c0        1
    x[0,0,2]  c6        -1
    x[0,0,2]  c31       1
    x[0,0,2]  c67       4
    x[0,0,2]  c91       4
    x[0,0,2]  c107      4
    x[0,0,2]  c125      4
    x[0,0,2]  c204      -1
    x[0,0,2]  c207      -1
    x[0,0,2]  c223      1
    x[0,0,2]  c247      1
    x[0,0,2]  c271      -1
    x[0,0,2]  c276      -1
    x[0,0,3]  c0        1
    x[0,0,3]  c32       1
    x[0,0,3]  c68       4
    x[0,0,3]  c94       4
    x[0,0,3]  c112      4
    x[0,0,3]  c129      4
    x[0,0,3]  c209      -1
    x[0,0,3]  c212      -1
    x[0,0,3]  c228      1
    x[0,0,3]  c252      1
    x[0,0,3]  c276      -1
    x[0,1,0]  c0        1
    x[0,1,0]  c4        -1
    x[0,1,0]  c33       1
    x[0,1,0]  c69       4
    x[0,1,0]  c86       4
    x[0,1,0]  c98       4
    x[0,1,0]  c118      4
    x[0,1,0]  c153      -1
    x[0,1,0]  c214      1
    x[0,1,0]  c238      1
    x[0,1,0]  c261      -1
    x[0,1,0]  c266      -1
    x[0,1,0]  c271      -1
    x[0,1,0]  c276      -1
    x[0,1,1]  c0        1
    x[0,1,1]  c5        -1
    x[0,1,1]  c34       1
    x[0,1,1]  c70       4
    x[0,1,1]  c89       4
    x[0,1,1]  c103      4
    x[0,1,1]  c122      4
    x[0,1,1]  c158      -1
    x[0,1,1]  c219      1
    x[0,1,1]  c243      1
    x[0,1,1]  c266      -1
    x[0,1,1]  c271      -1
    x[0,1,1]  c276      -1
    x[0,1,2]  c0        1
    x[0,1,2]  c6        -1
    x[0,1,2]  c35       1
    x[0,1,2]  c71       4
    x[0,1,2]  c92       4
    x[0,1,2]  c108      4
    x[0,1,2]  c126      4
    x[0,1,2]  c163      -1
    x[0,1,2]  c224      1
    x[0,1,2]  c248      1
    x[0,1,2]  c271      -1
    x[0,1,2]  c276      -1
    x[0,1,3]  c0        1
    x[0,1,3]  c36       1
    x[0,1,3]  c72       4
    x[0,1,3]  c95       4
    x[0,1,3]  c113      4
    x[0,1,3]  c130      4
    x[0,1,3]  c168      -1
    x[0,1,3]  c229      1
    x[0,1,3]  c253      1
    x[0,1,3]  c276      -1
    x[1,0,0]  c1        1
    x[1,0,0]  c7        -1
    x[1,0,0]  c37       1
    x[1,0,0]  c73       4
    x[1,0,0]  c99       4
    x[1,0,0]  c153      -1
    x[1,0,0]  c176      -1
    x[1,0,0]  c196      -1
    x[1,0,0]  c215      1
    x[1,0,0]  c239      1
    x[1,0,0]  c257      -1
    x[1,0,0]  c258      -1
    x[1,0,0]  c260      -1
    x[1,0,0]  c261      -1
    x[1,0,0]  c262      -1
    x[1,0,0]  c263      -1
    x[1,0,0]  c265      -1
    x[1,0,0]  c266      -1
    x[1,0,0]  c267      -1
    x[1,0,0]  c268      -1
    x[1,0,0]  c270      -1
    x[1,0,0]  c271      -1
    x[1,0,0]  c272      -1
    x[1,0,0]  c273      -1
    x[1,0,0]  c275      -1
    x[1,0,0]  c276      -1
    x[1,0,1]  c1        1
    x[1,0,1]  c8        -1
    x[1,0,1]  c38       1
    x[1,0,1]  c74       4
    x[1,0,1]  c104      4
    x[1,0,1]  c158      -1
    x[1,0,1]  c181      -1
    x[1,0,1]  c201      -1
    x[1,0,1]  c220      1
    x[1,0,1]  c244      1
    x[1,0,1]  c262      -1
    x[1,0,1]  c263      -1
    x[1,0,1]  c265      -1
    x[1,0,1]  c266      -1
    x[1,0,1]  c267      -1
    x[1,0,1]  c268      -1
    x[1,0,1]  c270      -1
    x[1,0,1]  c271      -1
    x[1,0,1]  c272      -1
    x[1,0,1]  c273      -1
    x[1,0,1]  c275      -1
    x[1,0,1]  c276      -1
    x[1,0,2]  c1        1
    x[1,0,2]  c9        -1
    x[1,0,2]  c39       1
    x[1,0,2]  c75       4
    x[1,0,2]  c109      4
    x[1,0,2]  c163      -1
    x[1,0,2]  c186      -1
    x[1,0,2]  c206      -1
    x[1,0,2]  c225      1
    x[1,0,2]  c249      1
    x[1,0,2]  c267      -1
    x[1,0,2]  c268      -1
    x[1,0,2]  c270      -1
    x[1,0,2]  c271      -1
    x[1,0,2]  c272      -1
    x[1,0,2]  c273      -1
    x[1,0,2]  c275      -1
    x[1,0,2]  c276      -1
    x[1,0,3]  c1        1
    x[1,0,3]  c40       1
    x[1,0,3]  c76       4
    x[1,0,3]  c114      4
    x[1,0,3]  c168      -1
    x[1,0,3]  c191      -1
    x[1,0,3]  c211      -1
    x[1,0,3]  c230      1
    x[1,0,3]  c254      1
    x[1,0,3]  c272      -1
    x[1,0,3]  c273      -1
    x[1,0,3]  c275      -1
    x[1,0,3]  c276      -1
    x[2,0,0]  c2        1
    x[2,0,0]  c10       -1
    x[2,0,0]  c41       1
    x[2,0,0]  c77       4
    x[2,0,0]  c100      4
    x[2,0,0]  c119      4
    x[2,0,0]  c153      -1
    x[2,0,0]  c216      1
    x[2,0,0]  c240      1
    x[2,0,0]  c257      -1
    x[2,0,0]  c258      -1
    x[2,0,0]  c261      -1
    x[2,0,0]  c262      -1
    x[2,0,0]  c263      -1
    x[2,0,0]  c266      -1
    x[2,0,0]  c267      -1
    x[2,0,0]  c268      -1
    x[2,0,0]  c271      -1
    x[2,0,0]  c272      -1
    x[2,0,0]  c273      -1
    x[2,0,0]  c276      -1
    x[2,0,1]  c2        1
    x[2,0,1]  c11       -1
    x[2,0,1]  c42       1
    x[2,0,1]  c78       4
    x[2,0,1]  c105      4
    x[2,0,1]  c123      4
    x[2,0,1]  c158      -1
    x[2,0,1]  c221      1
    x[2,0,1]  c245      1
    x[2,0,1]  c262      -1
    x[2,0,1]  c263      -1
    x[2,0,1]  c266      -1
    x[2,0,1]  c267      -1
    x[2,0,1]  c268      -1
    x[2,0,1]  c271      -1
    x[2,0,1]  c272      -1
    x[2,0,1]  c273      -1
    x[2,0,1]  c276      -1
    x[2,0,2]  c2        1
    x[2,0,2]  c12       -1
    x[2,0,2]  c43       1
    x[2,0,2]  c79       4
    x[2,0,2]  c110      4
    x[2,0,2]  c127      4
    x[2,0,2]  c163      -1
    x[2,0,2]  c226      1
    x[2,0,2]  c250      1
    x[2,0,2]  c267      -1
    x[2,0,2]  c268      -1
    x[2,0,2]  c271      -1
    x[2,0,2]  c272      -1
    x[2,0,2]  c273      -1
    x[2,0,2]  c276      -1
    x[2,0,3]  c2        1
    x[2,0,3]  c44       1
    x[2,0,3]  c80       4
    x[2,0,3]  c115      4
    x[2,0,3]  c131      4
    x[2,0,3]  c168      -1
    x[2,0,3]  c231      1
    x[2,0,3]  c255      1
    x[2,0,3]  c272      -1
    x[2,0,3]  c273      -1
    x[2,0,3]  c276      -1
    x[3,0,0]  c3        1
    x[3,0,0]  c4        -1
    x[3,0,0]  c17       1
    x[3,0,0]  c21       1
    x[3,0,0]  c25       1
    x[3,0,0]  c45       1
    x[3,0,0]  c81       4
    x[3,0,0]  c87       4
    x[3,0,0]  c101      4
    x[3,0,0]  c120      4
    x[3,0,0]  c153      -1
    x[3,0,0]  c217      1
    x[3,0,0]  c241      1
    x[3,0,1]  c3        1
    x[3,0,1]  c5        -1
    x[3,0,1]  c21       1
    x[3,0,1]  c25       1
    x[3,0,1]  c46       1
    x[3,0,1]  c82       4
    x[3,0,1]  c90       4
    x[3,0,1]  c106      4
    x[3,0,1]  c124      4
    x[3,0,1]  c158      -1
    x[3,0,1]  c222      1
    x[3,0,1]  c246      1
    x[3,0,2]  c3        1
    x[3,0,2]  c6        -1
    x[3,0,2]  c25       1
    x[3,0,2]  c47       1
    x[3,0,2]  c83       4
    x[3,0,2]  c93       4
    x[3,0,2]  c111      4
    x[3,0,2]  c128      4
    x[3,0,2]  c163      -1
    x[3,0,2]  c227      1
    x[3,0,2]  c251      1
    x[3,0,3]  c3        1
    x[3,0,3]  c48       1
    x[3,0,3]  c84       4
    x[3,0,3]  c96       4
    x[3,0,3]  c116      4
    x[3,0,3]  c132      4
    x[3,0,3]  c168      -1
    x[3,0,3]  c232      1
    x[3,0,3]  c256      1
    y[0,0,0]  c133      -1
    y[0,0,0]  c174      -1
    y[0,0,0]  c175      -1
    y[0,0,0]  c176      -1
    y[0,0,0]  c177      -1
    y[0,0,0]  c233      1
    y[0,0,0]  c237      -1
    y[0,0,0]  c238      -1
    y[0,0,0]  c239      -1
    y[0,0,0]  c240      -1
    y[0,0,0]  c241      -1
    y[0,0,0]  c257      10
    y[0,0,1]  c138      -1
    y[0,0,1]  c179      -1
    y[0,0,1]  c180      -1
    y[0,0,1]  c181      -1
    y[0,0,1]  c182      -1
    y[0,0,1]  c234      1
    y[0,0,1]  c242      -1
    y[0,0,1]  c243      -1
    y[0,0,1]  c244      -1
    y[0,0,1]  c245      -1
    y[0,0,1]  c246      -1
    y[0,0,1]  c262      10
    y[0,0,2]  c143      -1
    y[0,0,2]  c184      -1
    y[0,0,2]  c185      -1
    y[0,0,2]  c186      -1
    y[0,0,2]  c187      -1
    y[0,0,2]  c235      1
    y[0,0,2]  c247      -1
    y[0,0,2]  c248      -1
    y[0,0,2]  c249      -1
    y[0,0,2]  c250      -1
    y[0,0,2]  c251      -1
    y[0,0,2]  c267      10
    y[0,0,3]  c148      -1
    y[0,0,3]  c189      -1
    y[0,0,3]  c190      -1
    y[0,0,3]  c191      -1
    y[0,0,3]  c192      -1
    y[0,0,3]  c236      1
    y[0,0,3]  c252      -1
    y[0,0,3]  c253      -1
    y[0,0,3]  c254      -1
    y[0,0,3]  c255      -1
    y[0,0,3]  c256      -1
    y[0,0,3]  c272      10
    y[0,1,0]  c134      -1
    y[0,1,0]  c135      -1
    y[0,1,0]  c136      -1
    y[0,1,0]  c137      -1
    y[0,1,0]  c233      1
    y[0,1,0]  c237      -1
    y[0,1,0]  c238      -1
    y[0,1,0]  c239      -1
    y[0,1,0]  c240      -1
    y[0,1,0]  c241      -1
    y[0,1,0]  c258      15
    y[0,1,1]  c139      -1
    y[0,1,1]  c140      -1
    y[0,1,1]  c141      -1
    y[0,1,1]  c142      -1
    y[0,1,1]  c234      1
    y[0,1,1]  c242      -1
    y[0,1,1]  c243      -1
    y[0,1,1]  c244      -1
    y[0,1,1]  c245      -1
    y[0,1,1]  c246      -1
    y[0,1,1]  c263      15
    y[0,1,2]  c144      -1
    y[0,1,2]  c145      -1
    y[0,1,2]  c146      -1
    y[0,1,2]  c147      -1
    y[0,1,2]  c235      1
    y[0,1,2]  c247      -1
    y[0,1,2]  c248      -1
    y[0,1,2]  c249      -1
    y[0,1,2]  c250      -1
    y[0,1,2]  c251      -1
    y[0,1,2]  c268      15
    y[0,1,3]  c149      -1
    y[0,1,3]  c150      -1
    y[0,1,3]  c151      -1
    y[0,1,3]  c152      -1
    y[0,1,3]  c236      1
    y[0,1,3]  c252      -1
    y[0,1,3]  c253      -1
    y[0,1,3]  c254      -1
    y[0,1,3]  c255      -1
    y[0,1,3]  c256      -1
    y[0,1,3]  c273      15
    y[1,0,0]  c135      -1
    y[1,0,0]  c233      1
    y[1,0,0]  c239      -1
    y[1,0,0]  c259      3
    y[1,0,1]  c140      -1
    y[1,0,1]  c234      1
    y[1,0,1]  c244      -1
    y[1,0,1]  c264      3
    y[1,0,2]  c145      -1
    y[1,0,2]  c235      1
    y[1,0,2]  c249      -1
    y[1,0,2]  c269      3
    y[1,0,3]  c150      -1
    y[1,0,3]  c236      1
    y[1,0,3]  c254      -1
    y[1,0,3]  c274      3
    y[2,0,0]  c135      -1
    y[2,0,0]  c136      -1
    y[2,0,0]  c233      1
    y[2,0,0]  c239      -1
    y[2,0,0]  c240      -1
    y[2,0,0]  c260      6
    y[2,0,1]  c140      -1
    y[2,0,1]  c141      -1
    y[2,0,1]  c234      1
    y[2,0,1]  c244      -1
    y[2,0,1]  c245      -1
    y[2,0,1]  c265      6
    y[2,0,2]  c145      -1
    y[2,0,2]  c146      -1
    y[2,0,2]  c235      1
    y[2,0,2]  c249      -1
    y[2,0,2]  c250      -1
    y[2,0,2]  c270      6
    y[2,0,3]  c150      -1
    y[2,0,3]  c151      -1
    y[2,0,3]  c236      1
    y[2,0,3]  c254      -1
    y[2,0,3]  c255      -1
    y[2,0,3]  c275      6
    y[3,0,0]  c134      -1
    y[3,0,0]  c135      -1
    y[3,0,0]  c136      -1
    y[3,0,0]  c137      -1
    y[3,0,0]  c233      1
    y[3,0,0]  c237      -1
    y[3,0,0]  c238      -1
    y[3,0,0]  c239      -1
    y[3,0,0]  c240      -1
    y[3,0,0]  c241      -1
    y[3,0,0]  c261      15
    y[3,0,1]  c139      -1
    y[3,0,1]  c140      -1
    y[3,0,1]  c141      -1
    y[3,0,1]  c142      -1
    y[3,0,1]  c234      1
    y[3,0,1]  c242      -1
    y[3,0,1]  c243      -1
    y[3,0,1]  c244      -1
    y[3,0,1]  c245      -1
    y[3,0,1]  c246      -1
    y[3,0,1]  c266      15
    y[3,0,2]  c144      -1
    y[3,0,2]  c145      -1
    y[3,0,2]  c146      -1
    y[3,0,2]  c147      -1
    y[3,0,2]  c235      1
    y[3,0,2]  c247      -1
    y[3,0,2]  c248      -1
    y[3,0,2]  c249      -1
    y[3,0,2]  c250      -1
    y[3,0,2]  c251      -1
    y[3,0,2]  c271      15
    y[3,0,3]  c149      -1
    y[3,0,3]  c150      -1
    y[3,0,3]  c151      -1
    y[3,0,3]  c152      -1
    y[3,0,3]  c236      1
    y[3,0,3]  c252      -1
    y[3,0,3]  c253      -1
    y[3,0,3]  c254      -1
    y[3,0,3]  c255      -1
    y[3,0,3]  c256      -1
    y[3,0,3]  c276      15
    z1[0,0,0]  c133      1
    z1[0,0,0]  c213      -1
    z2[0,0,0]  c153      6
    z2[0,0,0]  c213      -1
    z3[0,0,0]  c173      2
    z3[0,0,0]  c213      -1
    z3[0,0,0]  c257      1
    z3[0,0,0]  c258      1
    z3[0,0,0]  c259      1
    z3[0,0,0]  c260      1
    z3[0,0,0]  c261      1
    z4[0,0,0]  c193      2
    z4[0,0,0]  c213      -1
    z4[0,0,0]  c257      1
    z4[0,0,0]  c258      1
    z4[0,0,0]  c259      1
    z4[0,0,0]  c260      1
    z4[0,0,0]  c261      1
    z1[0,0,1]  c138      1
    z1[0,0,1]  c218      -1
    z2[0,0,1]  c158      6
    z2[0,0,1]  c218      -1
    z3[0,0,1]  c178      2
    z3[0,0,1]  c218      -1
    z3[0,0,1]  c262      1
    z3[0,0,1]  c263      1
    z3[0,0,1]  c264      1
    z3[0,0,1]  c265      1
    z3[0,0,1]  c266      1
    z4[0,0,1]  c198      2
    z4[0,0,1]  c218      -1
    z4[0,0,1]  c262      1
    z4[0,0,1]  c263      1
    z4[0,0,1]  c264      1
    z4[0,0,1]  c265      1
    z4[0,0,1]  c266      1
    z1[0,0,2]  c143      1
    z1[0,0,2]  c223      -1
    z2[0,0,2]  c163      6
    z2[0,0,2]  c223      -1
    z3[0,0,2]  c183      2
    z3[0,0,2]  c223      -1
    z3[0,0,2]  c267      1
    z3[0,0,2]  c268      1
    z3[0,0,2]  c269      1
    z3[0,0,2]  c270      1
    z3[0,0,2]  c271      1
    z4[0,0,2]  c203      2
    z4[0,0,2]  c223      -1
    z4[0,0,2]  c267      1
    z4[0,0,2]  c268      1
    z4[0,0,2]  c269      1
    z4[0,0,2]  c270      1
    z4[0,0,2]  c271      1
    z1[0,0,3]  c148      1
    z1[0,0,3]  c228      -1
    z2[0,0,3]  c168      6
    z2[0,0,3]  c228      -1
    z3[0,0,3]  c188      2
    z3[0,0,3]  c228      -1
    z3[0,0,3]  c272      1
    z3[0,0,3]  c273      1
    z3[0,0,3]  c274      1
    z3[0,0,3]  c275      1
    z3[0,0,3]  c276      1
    z4[0,0,3]  c208      2
    z4[0,0,3]  c228      -1
    z4[0,0,3]  c272      1
    z4[0,0,3]  c273      1
    z4[0,0,3]  c274      1
    z4[0,0,3]  c275      1
    z4[0,0,3]  c276      1
    z1[0,1,0]  c134      1
    z1[0,1,0]  c214      -1
    z2[0,1,0]  c154      6
    z2[0,1,0]  c214      -1
    z3[0,1,0]  c153      1
    z3[0,1,0]  c174      2
    z3[0,1,0]  c214      -1
    z3[0,1,0]  c257      1
    z3[0,1,0]  c258      1
    z3[0,1,0]  c259      1
    z3[0,1,0]  c260      1
    z3[0,1,0]  c261      1
    z4[0,1,0]  c153      1
    z4[0,1,0]  c194      2
    z4[0,1,0]  c214      -1
    z4[0,1,0]  c257      1
    z4[0,1,0]  c258      1
    z4[0,1,0]  c259      1
    z4[0,1,0]  c260      1
    z4[0,1,0]  c261      1
    z1[0,1,1]  c139      1
    z1[0,1,1]  c219      -1
    z2[0,1,1]  c159      6
    z2[0,1,1]  c219      -1
    z3[0,1,1]  c158      1
    z3[0,1,1]  c179      2
    z3[0,1,1]  c219      -1
    z3[0,1,1]  c262      1
    z3[0,1,1]  c263      1
    z3[0,1,1]  c264      1
    z3[0,1,1]  c265      1
    z3[0,1,1]  c266      1
    z4[0,1,1]  c158      1
    z4[0,1,1]  c199      2
    z4[0,1,1]  c219      -1
    z4[0,1,1]  c262      1
    z4[0,1,1]  c263      1
    z4[0,1,1]  c264      1
    z4[0,1,1]  c265      1
    z4[0,1,1]  c266      1
    z1[0,1,2]  c144      1
    z1[0,1,2]  c224      -1
    z2[0,1,2]  c164      6
    z2[0,1,2]  c224      -1
    z3[0,1,2]  c163      1
    z3[0,1,2]  c184      2
    z3[0,1,2]  c224      -1
    z3[0,1,2]  c267      1
    z3[0,1,2]  c268      1
    z3[0,1,2]  c269      1
    z3[0,1,2]  c270      1
    z3[0,1,2]  c271      1
    z4[0,1,2]  c163      1
    z4[0,1,2]  c204      2
    z4[0,1,2]  c224      -1
    z4[0,1,2]  c267      1
    z4[0,1,2]  c268      1
    z4[0,1,2]  c269      1
    z4[0,1,2]  c270      1
    z4[0,1,2]  c271      1
    z1[0,1,3]  c149      1
    z1[0,1,3]  c229      -1
    z2[0,1,3]  c169      6
    z2[0,1,3]  c229      -1
    z3[0,1,3]  c168      1
    z3[0,1,3]  c189      2
    z3[0,1,3]  c229      -1
    z3[0,1,3]  c272      1
    z3[0,1,3]  c273      1
    z3[0,1,3]  c274      1
    z3[0,1,3]  c275      1
    z3[0,1,3]  c276      1
    z4[0,1,3]  c168      1
    z4[0,1,3]  c209      2
    z4[0,1,3]  c229      -1
    z4[0,1,3]  c272      1
    z4[0,1,3]  c273      1
    z4[0,1,3]  c274      1
    z4[0,1,3]  c275      1
    z4[0,1,3]  c276      1
    z1[1,0,0]  c135      1
    z1[1,0,0]  c215      -1
    z2[1,0,0]  c155      6
    z2[1,0,0]  c215      -1
    z3[1,0,0]  c153      1
    z3[1,0,0]  c175      1
    z3[1,0,0]  c215      -1
    z3[1,0,0]  c257      1
    z3[1,0,0]  c258      1
    z3[1,0,0]  c259      1
    z3[1,0,0]  c260      1
    z3[1,0,0]  c261      1
    z4[1,0,0]  c153      1
    z4[1,0,0]  c195      1
    z4[1,0,0]  c215      -1
    z4[1,0,0]  c257      1
    z4[1,0,0]  c258      1
    z4[1,0,0]  c259      1
    z4[1,0,0]  c260      1
    z4[1,0,0]  c261      1
    z1[1,0,1]  c140      1
    z1[1,0,1]  c220      -1
    z2[1,0,1]  c160      6
    z2[1,0,1]  c220      -1
    z3[1,0,1]  c158      1
    z3[1,0,1]  c180      1
    z3[1,0,1]  c220      -1
    z3[1,0,1]  c262      1
    z3[1,0,1]  c263      1
    z3[1,0,1]  c264      1
    z3[1,0,1]  c265      1
    z3[1,0,1]  c266      1
    z4[1,0,1]  c158      1
    z4[1,0,1]  c200      1
    z4[1,0,1]  c220      -1
    z4[1,0,1]  c262      1
    z4[1,0,1]  c263      1
    z4[1,0,1]  c264      1
    z4[1,0,1]  c265      1
    z4[1,0,1]  c266      1
    z1[1,0,2]  c145      1
    z1[1,0,2]  c225      -1
    z2[1,0,2]  c165      6
    z2[1,0,2]  c225      -1
    z3[1,0,2]  c163      1
    z3[1,0,2]  c185      1
    z3[1,0,2]  c225      -1
    z3[1,0,2]  c267      1
    z3[1,0,2]  c268      1
    z3[1,0,2]  c269      1
    z3[1,0,2]  c270      1
    z3[1,0,2]  c271      1
    z4[1,0,2]  c163      1
    z4[1,0,2]  c205      1
    z4[1,0,2]  c225      -1
    z4[1,0,2]  c267      1
    z4[1,0,2]  c268      1
    z4[1,0,2]  c269      1
    z4[1,0,2]  c270      1
    z4[1,0,2]  c271      1
    z1[1,0,3]  c150      1
    z1[1,0,3]  c230      -1
    z2[1,0,3]  c170      6
    z2[1,0,3]  c230      -1
    z3[1,0,3]  c168      1
    z3[1,0,3]  c190      1
    z3[1,0,3]  c230      -1
    z3[1,0,3]  c272      1
    z3[1,0,3]  c273      1
    z3[1,0,3]  c274      1
    z3[1,0,3]  c275      1
    z3[1,0,3]  c276      1
    z4[1,0,3]  c168      1
    z4[1,0,3]  c210      1
    z4[1,0,3]  c230      -1
    z4[1,0,3]  c272      1
    z4[1,0,3]  c273      1
    z4[1,0,3]  c274      1
    z4[1,0,3]  c275      1
    z4[1,0,3]  c276      1
    z1[2,0,0]  c136      1
    z1[2,0,0]  c216      -1
    z2[2,0,0]  c156      6
    z2[2,0,0]  c216      -1
    z3[2,0,0]  c153      1
    z3[2,0,0]  c176      2
    z3[2,0,0]  c216      -1
    z3[2,0,0]  c257      1
    z3[2,0,0]  c258      1
    z3[2,0,0]  c259      1
    z3[2,0,0]  c260      1
    z3[2,0,0]  c261      1
    z4[2,0,0]  c153      1
    z4[2,0,0]  c196      2
    z4[2,0,0]  c216      -1
    z4[2,0,0]  c257      1
    z4[2,0,0]  c258      1
    z4[2,0,0]  c259      1
    z4[2,0,0]  c260      1
    z4[2,0,0]  c261      1
    z1[2,0,1]  c141      1
    z1[2,0,1]  c221      -1
    z2[2,0,1]  c161      6
    z2[2,0,1]  c221      -1
    z3[2,0,1]  c158      1
    z3[2,0,1]  c181      2
    z3[2,0,1]  c221      -1
    z3[2,0,1]  c262      1
    z3[2,0,1]  c263      1
    z3[2,0,1]  c264      1
    z3[2,0,1]  c265      1
    z3[2,0,1]  c266      1
    z4[2,0,1]  c158      1
    z4[2,0,1]  c201      2
    z4[2,0,1]  c221      -1
    z4[2,0,1]  c262      1
    z4[2,0,1]  c263      1
    z4[2,0,1]  c264      1
    z4[2,0,1]  c265      1
    z4[2,0,1]  c266      1
    z1[2,0,2]  c146      1
    z1[2,0,2]  c226      -1
    z2[2,0,2]  c166      6
    z2[2,0,2]  c226      -1
    z3[2,0,2]  c163      1
    z3[2,0,2]  c186      2
    z3[2,0,2]  c226      -1
    z3[2,0,2]  c267      1
    z3[2,0,2]  c268      1
    z3[2,0,2]  c269      1
    z3[2,0,2]  c270      1
    z3[2,0,2]  c271      1
    z4[2,0,2]  c163      1
    z4[2,0,2]  c206      2
    z4[2,0,2]  c226      -1
    z4[2,0,2]  c267      1
    z4[2,0,2]  c268      1
    z4[2,0,2]  c269      1
    z4[2,0,2]  c270      1
    z4[2,0,2]  c271      1
    z1[2,0,3]  c151      1
    z1[2,0,3]  c231      -1
    z2[2,0,3]  c171      6
    z2[2,0,3]  c231      -1
    z3[2,0,3]  c168      1
    z3[2,0,3]  c191      2
    z3[2,0,3]  c231      -1
    z3[2,0,3]  c272      1
    z3[2,0,3]  c273      1
    z3[2,0,3]  c274      1
    z3[2,0,3]  c275      1
    z3[2,0,3]  c276      1
    z4[2,0,3]  c168      1
    z4[2,0,3]  c211      2
    z4[2,0,3]  c231      -1
    z4[2,0,3]  c272      1
    z4[2,0,3]  c273      1
    z4[2,0,3]  c274      1
    z4[2,0,3]  c275      1
    z4[2,0,3]  c276      1
    z1[3,0,0]  c137      1
    z1[3,0,0]  c217      -1
    z2[3,0,0]  c157      6
    z2[3,0,0]  c217      -1
    z3[3,0,0]  c153      1
    z3[3,0,0]  c177      2
    z3[3,0,0]  c217      -1
    z3[3,0,0]  c257      1
    z3[3,0,0]  c258      1
    z3[3,0,0]  c259      1
    z3[3,0,0]  c260      1
    z3[3,0,0]  c261      1
    z4[3,0,0]  c153      1
    z4[3,0,0]  c197      2
    z4[3,0,0]  c217      -1
    z4[3,0,0]  c257      1
    z4[3,0,0]  c258      1
    z4[3,0,0]  c259      1
    z4[3,0,0]  c260      1
    z4[3,0,0]  c261      1
    z1[3,0,1]  c142      1
    z1[3,0,1]  c222      -1
    z2[3,0,1]  c162      6
    z2[3,0,1]  c222      -1
    z3[3,0,1]  c158      1
    z3[3,0,1]  c182      2
    z3[3,0,1]  c222      -1
    z3[3,0,1]  c262      1
    z3[3,0,1]  c263      1
    z3[3,0,1]  c264      1
    z3[3,0,1]  c265      1
    z3[3,0,1]  c266      1
    z4[3,0,1]  c158      1
    z4[3,0,1]  c202      2
    z4[3,0,1]  c222      -1
    z4[3,0,1]  c262      1
    z4[3,0,1]  c263      1
    z4[3,0,1]  c264      1
    z4[3,0,1]  c265      1
    z4[3,0,1]  c266      1
    z1[3,0,2]  c147      1
    z1[3,0,2]  c227      -1
    z2[3,0,2]  c167      6
    z2[3,0,2]  c227      -1
    z3[3,0,2]  c163      1
    z3[3,0,2]  c187      2
    z3[3,0,2]  c227      -1
    z3[3,0,2]  c267      1
    z3[3,0,2]  c268      1
    z3[3,0,2]  c269      1
    z3[3,0,2]  c270      1
    z3[3,0,2]  c271      1
    z4[3,0,2]  c163      1
    z4[3,0,2]  c207      2
    z4[3,0,2]  c227      -1
    z4[3,0,2]  c267      1
    z4[3,0,2]  c268      1
    z4[3,0,2]  c269      1
    z4[3,0,2]  c270      1
    z4[3,0,2]  c271      1
    z1[3,0,3]  c152      1
    z1[3,0,3]  c232      -1
    z2[3,0,3]  c172      6
    z2[3,0,3]  c232      -1
    z3[3,0,3]  c168      1
    z3[3,0,3]  c192      2
    z3[3,0,3]  c232      -1
    z3[3,0,3]  c272      1
    z3[3,0,3]  c273      1
    z3[3,0,3]  c274      1
    z3[3,0,3]  c275      1
    z3[3,0,3]  c276      1
    z4[3,0,3]  c168      1
    z4[3,0,3]  c212      2
    z4[3,0,3]  c232      -1
    z4[3,0,3]  c272      1
    z4[3,0,3]  c273      1
    z4[3,0,3]  c274      1
    z4[3,0,3]  c275      1
    z4[3,0,3]  c276      1
    u[0,0,0]  c29       -1
    u[0,0,0]  c49       1
    u[0,0,1]  c30       -1
    u[0,0,1]  c53       1
    u[0,0,2]  c31       -1
    u[0,0,2]  c57       1
    u[0,0,3]  c32       -1
    u[0,0,3]  c61       1
    u[0,1,0]  c13       -1
    u[0,1,0]  c33       -1
    u[0,1,0]  c49       1
    u[0,1,1]  c17       -1
    u[0,1,1]  c34       -1
    u[0,1,1]  c53       1
    u[0,1,2]  c21       -1
    u[0,1,2]  c35       -1
    u[0,1,2]  c57       1
    u[0,1,3]  c25       -1
    u[0,1,3]  c36       -1
    u[0,1,3]  c61       1
    u[1,0,0]  c37       -1
    u[1,0,0]  c50       1
    u[1,0,1]  c38       -1
    u[1,0,1]  c54       1
    u[1,0,2]  c39       -1
    u[1,0,2]  c58       1
    u[1,0,3]  c40       -1
    u[1,0,3]  c62       1
    u[2,0,0]  c41       -1
    u[2,0,0]  c51       1
    u[2,0,1]  c42       -1
    u[2,0,1]  c55       1
    u[2,0,2]  c43       -1
    u[2,0,2]  c59       1
    u[2,0,3]  c44       -1
    u[2,0,3]  c63       1
    u[3,0,0]  c45       -1
    u[3,0,0]  c52       1
    u[3,0,1]  c46       -1
    u[3,0,1]  c56       1
    u[3,0,2]  c47       -1
    u[3,0,2]  c60       1
    u[3,0,3]  c48       -1
    u[3,0,3]  c64       1
    MARKER    'MARKER'                 'INTEND'
    h[0,0]    c4        1
    h[0,0]    c85       -1
    h[0,0]    c86       -1
    h[0,0]    c87       -1
    h[0,1]    c4        -1
    h[0,1]    c5        1
    h[0,1]    c88       -1
    h[0,1]    c89       -1
    h[0,1]    c90       -1
    h[0,2]    c5        -1
    h[0,2]    c6        1
    h[0,2]    c91       -1
    h[0,2]    c92       -1
    h[0,2]    c93       -1
    h[0,3]    c6        -1
    h[0,3]    c94       -1
    h[0,3]    c95       -1
    h[0,3]    c96       -1
    h[1,0]    c7        1
    h[1,0]    c97       -1
    h[1,0]    c98       -1
    h[1,0]    c99       -1
    h[1,0]    c100      -1
    h[1,0]    c101      -1
    h[1,1]    c7        -1
    h[1,1]    c8        1
    h[1,1]    c102      -1
    h[1,1]    c103      -1
    h[1,1]    c104      -1
    h[1,1]    c105      -1
    h[1,1]    c106      -1
    h[1,2]    c8        -1
    h[1,2]    c9        1
    h[1,2]    c107      -1
    h[1,2]    c108      -1
    h[1,2]    c109      -1
    h[1,2]    c110      -1
    h[1,2]    c111      -1
    h[1,3]    c9        -1
    h[1,3]    c112      -1
    h[1,3]    c113      -1
    h[1,3]    c114      -1
    h[1,3]    c115      -1
    h[1,3]    c116      -1
    h[2,0]    c10       1
    h[2,0]    c117      -1
    h[2,0]    c118      -1
    h[2,0]    c119      -1
    h[2,0]    c120      -1
    h[2,1]    c10       -1
    h[2,1]    c11       1
    h[2,1]    c121      -1
    h[2,1]    c122      -1
    h[2,1]    c123      -1
    h[2,1]    c124      -1
    h[2,2]    c11       -1
    h[2,2]    c12       1
    h[2,2]    c125      -1
    h[2,2]    c126      -1
    h[2,2]    c127      -1
    h[2,2]    c128      -1
    h[2,3]    c12       -1
    h[2,3]    c129      -1
    h[2,3]    c130      -1
    h[2,3]    c131      -1
    h[2,3]    c132      -1
    e[0]      OBJ       1
    e[0]      c257      -1
    e[0]      c258      -1
    e[0]      c259      -1
    e[0]      c260      -1
    e[0]      c261      -1
    e[1]      OBJ       1
    e[1]      c262      -1
    e[1]      c263      -1
    e[1]      c264      -1
    e[1]      c265      -1
    e[1]      c266      -1
    e[2]      OBJ       1
    e[2]      c267      -1
    e[2]      c268      -1
    e[2]      c269      -1
    e[2]      c270      -1
    e[2]      c271      -1
    e[3]      OBJ       1
    e[3]      c272      -1
    e[3]      c273      -1
    e[3]      c274      -1
    e[3]      c275      -1
    e[3]      c276      -1
RHS
    RHS1      c0        1
    RHS1      c1        1
    RHS1      c2        1
    RHS1      c3        1
    RHS1      c49       1
    RHS1      c50       1
    RHS1      c51       1
    RHS1      c52       1
    RHS1      c53       1
    RHS1      c54       1
    RHS1      c55       1
    RHS1      c56       1
    RHS1      c57       1
    RHS1      c58       1
    RHS1      c59       1
    RHS1      c60       1
    RHS1      c61       1
    RHS1      c62       1
    RHS1      c63       1
    RHS1      c64       1
    RHS1      c65       6
    RHS1      c66       6
    RHS1      c67       6
    RHS1      c68       6
    RHS1      c69       7
    RHS1      c70       7
    RHS1      c71       7
    RHS1      c72       7
    RHS1      c73       1003
    RHS1      c74       1003
    RHS1      c75       1003
    RHS1      c76       1003
    RHS1      c77       1003
    RHS1      c78       1003
    RHS1      c79       1003
    RHS1      c80       1003
    RHS1      c81       7
    RHS1      c82       7
    RHS1      c83       7
    RHS1      c84       7
    RHS1      c85       2
    RHS1      c86       3
    RHS1      c87       3
    RHS1      c88       2
    RHS1      c89       3
    RHS1      c90       3
    RHS1      c91       2
    RHS1      c92       3
    RHS1      c93       3
    RHS1      c94       2
    RHS1      c95       3
    RHS1      c96       3
    RHS1      c97       2
    RHS1      c98       3
    RHS1      c99       3
    RHS1      c100      3
    RHS1      c101      3
    RHS1      c102      2
    RHS1      c103      3
    RHS1      c104      3
    RHS1      c105      3
    RHS1      c106      3
    RHS1      c107      2
    RHS1      c108      3
    RHS1      c109      3
    RHS1      c110      3
    RHS1      c111      3
    RHS1      c112      2
    RHS1      c113      3
    RHS1      c114      3
    RHS1      c115      3
    RHS1      c116      3
    RHS1      c117      2
    RHS1      c118      3
    RHS1      c119      3
    RHS1      c120      3
    RHS1      c121      2
    RHS1      c122      3
    RHS1      c123      3
    RHS1      c124      3
    RHS1      c125      2
    RHS1      c126      3
    RHS1      c127      3
    RHS1      c128      3
    RHS1      c129      2
    RHS1      c130      3
    RHS1      c131      3
    RHS1      c132      3
    RHS1      c153      1
    RHS1      c154      1
    RHS1      c155      5
    RHS1      c156      4
    RHS1      c157      1
    RHS1      c158      1
    RHS1      c159      1
    RHS1      c160      5
    RHS1      c161      4
    RHS1      c162      1
    RHS1      c163      1
    RHS1      c164      1
    RHS1      c165      5
    RHS1      c166      4
    RHS1      c167      1
    RHS1      c168      1
    RHS1      c169      1
    RHS1      c170      5
    RHS1      c171      4
    RHS1      c172      1
    RHS1      c233      1
    RHS1      c234      1
    RHS1      c235      1
    RHS1      c236      1
    RHS1      c257      1
    RHS1      c258      1
    RHS1      c259      1
    RHS1      c260      1
    RHS1      c261      1
    RHS1      c262      1
    RHS1      c263      1
    RHS1      c264      1
    RHS1      c265      1
    RHS1      c266      1
    RHS1      c267      1
    RHS1      c268      1
    RHS1      c269      1
    RHS1      c270      1
    RHS1      c271      1
    RHS1      c272      1
    RHS1      c273      1
    RHS1      c274      1
    RHS1      c275      1
    RHS1      c276      1
BOUNDS
 BV BND1      x[0,0,0]
 BV BND1      x[0,0,1]
 BV BND1      x[0,0,2]
 BV BND1      x[0,0,3]
 BV BND1      x[0,1,0]
 BV BND1      x[0,1,1]
 BV BND1      x[0,1,2]
 BV BND1      x[0,1,3]
 BV BND1      x[1,0,0]
 BV BND1      x[1,0,1]
 BV BND1      x[1,0,2]
 BV BND1      x[1,0,3]
 BV BND1      x[2,0,0]
 BV BND1      x[2,0,1]
 BV BND1      x[2,0,2]
 BV BND1      x[2,0,3]
 BV BND1      x[3,0,0]
 BV BND1      x[3,0,1]
 BV BND1      x[3,0,2]
 BV BND1      x[3,0,3]
 BV BND1      y[0,0,0]
 BV BND1      y[0,0,1]
 BV BND1      y[0,0,2]
 BV BND1      y[0,0,3]
 BV BND1      y[0,1,0]
 BV BND1      y[0,1,1]
 BV BND1      y[0,1,2]
 BV BND1      y[0,1,3]
 BV BND1      y[1,0,0]
 BV BND1      y[1,0,1]
 BV BND1      y[1,0,2]
 BV BND1      y[1,0,3]
 BV BND1      y[2,0,0]
 BV BND1      y[2,0,1]
 BV BND1      y[2,0,2]
 BV BND1      y[2,0,3]
 BV BND1      y[3,0,0]
 BV BND1      y[3,0,1]
 BV BND1      y[3,0,2]
 BV BND1      y[3,0,3]
 BV BND1      z1[0,0,0]
 BV BND1      z2[0,0,0]
 BV BND1      z3[0,0,0]
 BV BND1      z4[0,0,0]
 BV BND1      z1[0,0,1]
 BV BND1      z2[0,0,1]
 BV BND1      z3[0,0,1]
 BV BND1      z4[0,0,1]
 BV BND1      z1[0,0,2]
 BV BND1      z2[0,0,2]
 BV BND1      z3[0,0,2]
 BV BND1      z4[0,0,2]
 BV BND1      z1[0,0,3]
 BV BND1      z2[0,0,3]
 BV BND1      z3[0,0,3]
 BV BND1      z4[0,0,3]
 BV BND1      z1[0,1,0]
 BV BND1      z2[0,1,0]
 BV BND1      z3[0,1,0]
 BV BND1      z4[0,1,0]
 BV BND1      z1[0,1,1]
 BV BND1      z2[0,1,1]
 BV BND1      z3[0,1,1]
 BV BND1      z4[0,1,1]
 BV BND1      z1[0,1,2]
 BV BND1      z2[0,1,2]
 BV BND1      z3[0,1,2]
 BV BND1      z4[0,1,2]
 BV BND1      z1[0,1,3]
 BV BND1      z2[0,1,3]
 BV BND1      z3[0,1,3]
 BV BND1      z4[0,1,3]
 BV BND1      z1[1,0,0]
 BV BND1      z2[1,0,0]
 BV BND1      z3[1,0,0]
 BV BND1      z4[1,0,0]
 BV BND1      z1[1,0,1]
 BV BND1      z2[1,0,1]
 BV BND1      z3[1,0,1]
 BV BND1      z4[1,0,1]
 BV BND1      z1[1,0,2]
 BV BND1      z2[1,0,2]
 BV BND1      z3[1,0,2]
 BV BND1      z4[1,0,2]
 BV BND1      z1[1,0,3]
 BV BND1      z2[1,0,3]
 BV BND1      z3[1,0,3]
 BV BND1      z4[1,0,3]
 BV BND1      z1[2,0,0]
 BV BND1      z2[2,0,0]
 BV BND1      z3[2,0,0]
 BV BND1      z4[2,0,0]
 BV BND1      z1[2,0,1]
 BV BND1      z2[2,0,1]
 BV BND1      z3[2,0,1]
 BV BND1      z4[2,0,1]
 BV BND1      z1[2,0,2]
 BV BND1      z2[2,0,2]
 BV BND1      z3[2,0,2]
 BV BND1      z4[2,0,2]
 BV BND1      z1[2,0,3]
 BV BND1      z2[2,0,3]
 BV BND1      z3[2,0,3]
 BV BND1      z4[2,0,3]
 BV BND1      z1[3,0,0]
 BV BND1      z2[3,0,0]
 BV BND1      z3[3,0,0]
 BV BND1      z4[3,0,0]
 BV BND1      z1[3,0,1]
 BV BND1      z2[3,0,1]
 BV BND1      z3[3,0,1]
 BV BND1      z4[3,0,1]
 BV BND1      z1[3,0,2]
 BV BND1      z2[3,0,2]
 BV BND1      z3[3,0,2]
 BV BND1      z4[3,0,2]
 BV BND1      z1[3,0,3]
 BV BND1      z2[3,0,3]
 BV BND1      z3[3,0,3]
 BV BND1      z4[3,0,3]
 BV BND1      u[0,0,0]
 BV BND1      u[0,0,1]
 BV BND1      u[0,0,2]
 BV BND1      u[0,0,3]
 BV BND1      u[0,1,0]
 BV BND1      u[0,1,1]
 BV BND1      u[0,1,2]
 BV BND1      u[0,1,3]
 BV BND1      u[1,0,0]
 BV BND1      u[1,0,1]
 BV BND1      u[1,0,2]
 BV BND1      u[1,0,3]
 BV BND1      u[2,0,0]
 BV BND1      u[2,0,1]
 BV BND1      u[2,0,2]
 BV BND1      u[2,0,3]
 BV BND1      u[3,0,0]
 BV BND1      u[3,0,1]
 BV BND1      u[3,0,2]
 BV BND1      u[3,0,3]
 FX BND1      h[0,0]    4
 UP BND1      h[0,1]    4
 UP BND1      h[0,2]    4
 UP BND1      h[0,3]    4
 FX BND1      h[1,0]    4
 UP BND1      h[1,1]    4
 UP BND1      h[1,2]    4
 UP BND1      h[1,3]    4
 FX BND1      h[2,0]    4
 UP BND1      h[2,1]    4
 UP BND1      h[2,2]    4
 UP BND1      h[2,3]    4
 UP BND1      e[0]      24
 UP BND1      e[1]      24
 UP BND1      e[2]      24
 UP BND1      e[3]      24
ENDATA
